p cnf 519 1114
a 41 46 51 56 61 66 71 76 81 87 93 99 105 111 117 123 0
e 518 519 0
a 33 34 35 36 37 38 39 40 0
e 2 3 4 5 6 7 8 9 10 12 13 15 16 18 19 21 22 24 25 27 28 30 31 44 45 49 50 54 55 59 60 64 65 69 70 74 75 79 80 85 86 91 92 97 98 103 104 109 110 115 116 121 122 127 128 129 130 131 132 133 134 135 136 11 14 17 20 23 26 29 32 42 43 47 48 52 53 57 58 62 63 67 68 72 73 77 78 82 83 84 88 89 90 94 95 96 100 101 102 106 107 108 112 113 114 118 119 120 124 125 126 138 140 142 144 146 148 150 152 137 139 141 143 145 147 149 151 153 154 155 156 157 158 159 160 162 163 164 165 166 167 168 169 170 171 172 173 174 175 176 177 178 179 180 181 182 183 184 185 186 187 188 189 191 190 237 242 247 252 257 262 267 272 277 283 289 295 301 307 313 319 0
a 229 230 231 232 233 234 235 236 0
e 198 199 200 201 202 203 204 205 206 208 209 211 212 214 215 217 218 220 221 223 224 226 227 240 241 245 246 250 251 255 256 260 261 265 266 270 271 275 276 281 282 287 288 293 294 299 300 305 306 311 312 317 318 323 324 325 326 327 328 329 330 331 332 207 210 213 216 219 222 225 228 238 239 243 244 248 249 253 254 258 259 263 264 268 269 273 274 278 279 280 284 285 286 290 291 292 296 297 298 302 303 304 308 309 310 314 315 316 320 321 322 334 336 338 340 342 344 346 348 333 335 337 339 341 343 345 347 349 350 351 352 353 354 355 356 358 359 360 361 362 363 364 365 366 367 368 369 370 371 372 373 374 375 376 377 378 379 380 381 382 383 384 385 387 386 194 195 390 391 435 440 445 450 455 460 465 470 475 481 487 493 499 505 511 517 0
9 -10 -518 0
10 -9 -518 0
11 -10 -518 0
10 -11 -518 0
12 -13 -518 0
13 -12 -518 0
14 -13 -518 0
13 -14 -518 0
15 -16 -518 0
16 -15 -518 0
17 -16 -518 0
16 -17 -518 0
18 -19 -518 0
19 -18 -518 0
20 -19 -518 0
19 -20 -518 0
21 -22 -518 0
22 -21 -518 0
23 -22 -518 0
22 -23 -518 0
24 -25 -518 0
25 -24 -518 0
26 -25 -518 0
25 -26 -518 0
27 -28 -518 0
28 -27 -518 0
29 -28 -518 0
28 -29 -518 0
30 -31 -518 0
31 -30 -518 0
32 -31 -518 0
31 -32 -518 0
44 -42 -518 0
44 -43 -518 0
42 43 -44 -518 0
44 -45 -518 0
45 -44 -518 0
49 -47 -518 0
49 -48 -518 0
47 48 -49 -518 0
49 -50 -518 0
50 -49 -518 0
54 -52 -518 0
54 -53 -518 0
52 53 -54 -518 0
54 -55 -518 0
55 -54 -518 0
59 -57 -518 0
59 -58 -518 0
57 58 -59 -518 0
59 -60 -518 0
60 -59 -518 0
64 -62 -518 0
64 -63 -518 0
62 63 -64 -518 0
64 -65 -518 0
65 -64 -518 0
69 -67 -518 0
69 -68 -518 0
67 68 -69 -518 0
69 -70 -518 0
70 -69 -518 0
74 -72 -518 0
74 -73 -518 0
72 73 -74 -518 0
74 -75 -518 0
75 -74 -518 0
79 -77 -518 0
79 -78 -518 0
77 78 -79 -518 0
79 -80 -518 0
80 -79 -518 0
85 -82 -518 0
85 -83 -518 0
85 -84 -518 0
82 83 84 -85 -518 0
85 -86 -518 0
86 -85 -518 0
91 -88 -518 0
91 -89 -518 0
91 -90 -518 0
88 89 90 -91 -518 0
91 -92 -518 0
92 -91 -518 0
97 -94 -518 0
97 -95 -518 0
97 -96 -518 0
94 95 96 -97 -518 0
97 -98 -518 0
98 -97 -518 0
103 -100 -518 0
103 -101 -518 0
103 -102 -518 0
100 101 102 -103 -518 0
103 -104 -518 0
104 -103 -518 0
109 -106 -518 0
109 -107 -518 0
109 -108 -518 0
106 107 108 -109 -518 0
109 -110 -518 0
110 -109 -518 0
115 -112 -518 0
115 -113 -518 0
115 -114 -518 0
112 113 114 -115 -518 0
115 -116 -518 0
116 -115 -518 0
121 -118 -518 0
121 -119 -518 0
121 -120 -518 0
118 119 120 -121 -518 0
121 -122 -518 0
122 -121 -518 0
127 -124 -518 0
127 -125 -518 0
127 -126 -518 0
124 125 126 -127 -518 0
127 -128 -518 0
128 -127 -518 0
81 -129 -518 0
129 -81 -518 0
87 -130 -518 0
130 -87 -518 0
93 -131 -518 0
131 -93 -518 0
99 -132 -518 0
132 -99 -518 0
105 -133 -518 0
133 -105 -518 0
111 -134 -518 0
134 -111 -518 0
117 -135 -518 0
135 -117 -518 0
123 -136 -518 0
136 -123 -518 0
81 -11 -518 0
41 -11 -518 0
11 -81 -41 -518 0
87 -14 -518 0
46 -14 -518 0
14 -87 -46 -518 0
93 -17 -518 0
51 -17 -518 0
17 -93 -51 -518 0
99 -20 -518 0
56 -20 -518 0
20 -99 -56 -518 0
105 -23 -518 0
61 -23 -518 0
23 -105 -61 -518 0
111 -26 -518 0
66 -26 -518 0
26 -111 -66 -518 0
117 -29 -518 0
71 -29 -518 0
29 -117 -71 -518 0
123 -32 -518 0
76 -32 -518 0
32 -123 -76 -518 0
81 -42 -518 0
137 -42 -518 0
42 -81 -137 -518 0
81 -43 -518 0
41 -43 -518 0
138 -43 -518 0
43 -81 -41 -138 -518 0
87 -47 -518 0
139 -47 -518 0
2 -47 -518 0
47 -87 -139 -2 -518 0
87 -48 -518 0
46 -48 -518 0
140 -48 -518 0
48 -87 -46 -140 -518 0
93 -52 -518 0
141 -52 -518 0
3 -52 -518 0
52 -93 -141 -3 -518 0
93 -53 -518 0
51 -53 -518 0
142 -53 -518 0
53 -93 -51 -142 -518 0
99 -57 -518 0
143 -57 -518 0
4 -57 -518 0
57 -99 -143 -4 -518 0
99 -58 -518 0
56 -58 -518 0
144 -58 -518 0
58 -99 -56 -144 -518 0
105 -62 -518 0
145 -62 -518 0
5 -62 -518 0
62 -105 -145 -5 -518 0
105 -63 -518 0
61 -63 -518 0
146 -63 -518 0
63 -105 -61 -146 -518 0
111 -67 -518 0
147 -67 -518 0
6 -67 -518 0
67 -111 -147 -6 -518 0
111 -68 -518 0
66 -68 -518 0
148 -68 -518 0
68 -111 -66 -148 -518 0
117 -72 -518 0
149 -72 -518 0
7 -72 -518 0
72 -117 -149 -7 -518 0
117 -73 -518 0
71 -73 -518 0
150 -73 -518 0
73 -117 -71 -150 -518 0
123 -77 -518 0
151 -77 -518 0
8 -77 -518 0
77 -123 -151 -8 -518 0
123 -78 -518 0
76 -78 -518 0
152 -78 -518 0
78 -123 -76 -152 -518 0
153 -82 -518 0
137 -82 -518 0
33 -82 -518 0
82 -153 -137 -33 -518 0
81 -83 -518 0
137 -83 -518 0
83 -81 -137 -518 0
81 -84 -518 0
41 -84 -518 0
138 -84 -518 0
84 -81 -41 -138 -518 0
154 -88 -518 0
139 -88 -518 0
34 -88 -518 0
88 -154 -139 -34 -518 0
87 -89 -518 0
139 -89 -518 0
89 -87 -139 -518 0
87 -90 -518 0
46 -90 -518 0
140 -90 -518 0
90 -87 -46 -140 -518 0
155 -94 -518 0
141 -94 -518 0
35 -94 -518 0
94 -155 -141 -35 -518 0
93 -95 -518 0
141 -95 -518 0
95 -93 -141 -518 0
93 -96 -518 0
51 -96 -518 0
142 -96 -518 0
96 -93 -51 -142 -518 0
156 -100 -518 0
143 -100 -518 0
36 -100 -518 0
100 -156 -143 -36 -518 0
99 -101 -518 0
143 -101 -518 0
101 -99 -143 -518 0
99 -102 -518 0
56 -102 -518 0
144 -102 -518 0
102 -99 -56 -144 -518 0
157 -106 -518 0
145 -106 -518 0
37 -106 -518 0
106 -157 -145 -37 -518 0
105 -107 -518 0
145 -107 -518 0
107 -105 -145 -518 0
105 -108 -518 0
61 -108 -518 0
146 -108 -518 0
108 -105 -61 -146 -518 0
158 -112 -518 0
147 -112 -518 0
38 -112 -518 0
112 -158 -147 -38 -518 0
111 -113 -518 0
147 -113 -518 0
113 -111 -147 -518 0
111 -114 -518 0
66 -114 -518 0
148 -114 -518 0
114 -111 -66 -148 -518 0
159 -118 -518 0
149 -118 -518 0
39 -118 -518 0
118 -159 -149 -39 -518 0
117 -119 -518 0
149 -119 -518 0
119 -117 -149 -518 0
117 -120 -518 0
71 -120 -518 0
150 -120 -518 0
120 -117 -71 -150 -518 0
160 -124 -518 0
151 -124 -518 0
40 -124 -518 0
124 -160 -151 -40 -518 0
123 -125 -518 0
151 -125 -518 0
125 -123 -151 -518 0
123 -126 -518 0
76 -126 -518 0
152 -126 -518 0
126 -123 -76 -152 -518 0
33 138 -518 0
-33 -138 -518 0
34 140 -518 0
-34 -140 -518 0
35 142 -518 0
-35 -142 -518 0
36 144 -518 0
-36 -144 -518 0
37 146 -518 0
-37 -146 -518 0
38 148 -518 0
-38 -148 -518 0
39 150 -518 0
-39 -150 -518 0
40 152 -518 0
-40 -152 -518 0
41 137 -518 0
-41 -137 -518 0
46 139 -518 0
-46 -139 -518 0
51 141 -518 0
-51 -141 -518 0
56 143 -518 0
-56 -143 -518 0
61 145 -518 0
-61 -145 -518 0
66 147 -518 0
-66 -147 -518 0
71 149 -518 0
-71 -149 -518 0
76 151 -518 0
-76 -151 -518 0
81 153 -518 0
-81 -153 -518 0
87 154 -518 0
-87 -154 -518 0
93 155 -518 0
-93 -155 -518 0
99 156 -518 0
-99 -156 -518 0
105 157 -518 0
-105 -157 -518 0
111 158 -518 0
-111 -158 -518 0
117 159 -518 0
-117 -159 -518 0
123 160 -518 0
-123 -160 -518 0
10 -162 -518 0
22 -162 -518 0
162 -10 -22 -518 0
10 -163 -518 0
25 -163 -518 0
163 -10 -25 -518 0
10 -164 -518 0
28 -164 -518 0
164 -10 -28 -518 0
10 -165 -518 0
31 -165 -518 0
165 -10 -31 -518 0
13 -166 -518 0
16 -166 -518 0
166 -13 -16 -518 0
13 -167 -518 0
19 -167 -518 0
167 -13 -19 -518 0
10 -168 -518 0
13 -168 -518 0
168 -10 -13 -518 0
13 -169 -518 0
22 -169 -518 0
169 -13 -22 -518 0
13 -170 -518 0
25 -170 -518 0
170 -13 -25 -518 0
13 -171 -518 0
28 -171 -518 0
171 -13 -28 -518 0
13 -172 -518 0
31 -172 -518 0
172 -13 -31 -518 0
16 -173 -518 0
19 -173 -518 0
173 -16 -19 -518 0
16 -174 -518 0
22 -174 -518 0
174 -16 -22 -518 0
16 -175 -518 0
25 -175 -518 0
175 -16 -25 -518 0
16 -176 -518 0
28 -176 -518 0
176 -16 -28 -518 0
16 -177 -518 0
31 -177 -518 0
177 -16 -31 -518 0
19 -178 -518 0
22 -178 -518 0
178 -19 -22 -518 0
10 -179 -518 0
16 -179 -518 0
179 -10 -16 -518 0
19 -180 -518 0
25 -180 -518 0
180 -19 -25 -518 0
19 -181 -518 0
28 -181 -518 0
181 -19 -28 -518 0
19 -182 -518 0
31 -182 -518 0
182 -19 -31 -518 0
22 -183 -518 0
25 -183 -518 0
183 -22 -25 -518 0
22 -184 -518 0
28 -184 -518 0
184 -22 -28 -518 0
22 -185 -518 0
31 -185 -518 0
185 -22 -31 -518 0
25 -186 -518 0
28 -186 -518 0
186 -25 -28 -518 0
25 -187 -518 0
31 -187 -518 0
187 -25 -31 -518 0
28 -188 -518 0
31 -188 -518 0
188 -28 -31 -518 0
10 -189 -518 0
19 -189 -518 0
189 -10 -19 -518 0
190 191 -518 0
-190 -191 -518 0
190 -168 -518 0
190 -179 -518 0
190 -189 -518 0
190 -162 -518 0
190 -163 -518 0
190 -164 -518 0
190 -165 -518 0
190 -166 -518 0
190 -167 -518 0
190 -169 -518 0
190 -170 -518 0
190 -171 -518 0
190 -172 -518 0
190 -173 -518 0
190 -174 -518 0
190 -175 -518 0
190 -176 -518 0
190 -177 -518 0
190 -178 -518 0
190 -180 -518 0
190 -181 -518 0
190 -182 -518 0
190 -183 -518 0
190 -184 -518 0
190 -185 -518 0
190 -186 -518 0
190 -187 -518 0
190 -188 -518 0
168 179 189 162 163 164 165 166 167 169 170 171 172 173 174 175 176 177 178 180 181 182 183 184 185 186 187 188 -190 -518 0
191 -518 0
45 -237 -518 0
237 -45 -518 0
50 -242 -518 0
242 -50 -518 0
55 -247 -518 0
247 -55 -518 0
60 -252 -518 0
252 -60 -518 0
65 -257 -518 0
257 -65 -518 0
70 -262 -518 0
262 -70 -518 0
75 -267 -518 0
267 -75 -518 0
80 -272 -518 0
272 -80 -518 0
86 -277 -518 0
277 -86 -518 0
92 -283 -518 0
283 -92 -518 0
98 -289 -518 0
289 -98 -518 0
104 -295 -518 0
295 -104 -518 0
110 -301 -518 0
301 -110 -518 0
116 -307 -518 0
307 -116 -518 0
122 -313 -518 0
313 -122 -518 0
128 -319 -518 0
319 -128 -518 0
195 194 -518 0
41 -237 -195 -518 0
237 -41 -195 -518 0
46 -242 -195 -518 0
242 -46 -195 -518 0
51 -247 -195 -518 0
247 -51 -195 -518 0
56 -252 -195 -518 0
252 -56 -195 -518 0
61 -257 -195 -518 0
257 -61 -195 -518 0
66 -262 -195 -518 0
262 -66 -195 -518 0
71 -267 -195 -518 0
267 -71 -195 -518 0
76 -272 -195 -518 0
272 -76 -195 -518 0
81 -277 -195 -518 0
277 -81 -195 -518 0
87 -283 -195 -518 0
283 -87 -195 -518 0
93 -289 -195 -518 0
289 -93 -195 -518 0
99 -295 -195 -518 0
295 -99 -195 -518 0
105 -301 -195 -518 0
301 -105 -195 -518 0
111 -307 -195 -518 0
307 -111 -195 -518 0
117 -313 -195 -518 0
313 -117 -195 -518 0
123 -319 -195 -518 0
319 -123 -195 -518 0
205 -206 -194 -518 0
206 -205 -194 -518 0
207 -206 -194 -518 0
206 -207 -194 -518 0
208 -209 -194 -518 0
209 -208 -194 -518 0
210 -209 -194 -518 0
209 -210 -194 -518 0
211 -212 -194 -518 0
212 -211 -194 -518 0
213 -212 -194 -518 0
212 -213 -194 -518 0
214 -215 -194 -518 0
215 -214 -194 -518 0
216 -215 -194 -518 0
215 -216 -194 -518 0
217 -218 -194 -518 0
218 -217 -194 -518 0
219 -218 -194 -518 0
218 -219 -194 -518 0
220 -221 -194 -518 0
221 -220 -194 -518 0
222 -221 -194 -518 0
221 -222 -194 -518 0
223 -224 -194 -518 0
224 -223 -194 -518 0
225 -224 -194 -518 0
224 -225 -194 -518 0
226 -227 -194 -518 0
227 -226 -194 -518 0
228 -227 -194 -518 0
227 -228 -194 -518 0
240 -238 -194 -518 0
240 -239 -194 -518 0
238 239 -240 -194 -518 0
240 -241 -194 -518 0
241 -240 -194 -518 0
245 -243 -194 -518 0
245 -244 -194 -518 0
243 244 -245 -194 -518 0
245 -246 -194 -518 0
246 -245 -194 -518 0
250 -248 -194 -518 0
250 -249 -194 -518 0
248 249 -250 -194 -518 0
250 -251 -194 -518 0
251 -250 -194 -518 0
255 -253 -194 -518 0
255 -254 -194 -518 0
253 254 -255 -194 -518 0
255 -256 -194 -518 0
256 -255 -194 -518 0
260 -258 -194 -518 0
260 -259 -194 -518 0
258 259 -260 -194 -518 0
260 -261 -194 -518 0
261 -260 -194 -518 0
265 -263 -194 -518 0
265 -264 -194 -518 0
263 264 -265 -194 -518 0
265 -266 -194 -518 0
266 -265 -194 -518 0
270 -268 -194 -518 0
270 -269 -194 -518 0
268 269 -270 -194 -518 0
270 -271 -194 -518 0
271 -270 -194 -518 0
275 -273 -194 -518 0
275 -274 -194 -518 0
273 274 -275 -194 -518 0
275 -276 -194 -518 0
276 -275 -194 -518 0
281 -278 -194 -518 0
281 -279 -194 -518 0
281 -280 -194 -518 0
278 279 280 -281 -194 -518 0
281 -282 -194 -518 0
282 -281 -194 -518 0
287 -284 -194 -518 0
287 -285 -194 -518 0
287 -286 -194 -518 0
284 285 286 -287 -194 -518 0
287 -288 -194 -518 0
288 -287 -194 -518 0
293 -290 -194 -518 0
293 -291 -194 -518 0
293 -292 -194 -518 0
290 291 292 -293 -194 -518 0
293 -294 -194 -518 0
294 -293 -194 -518 0
299 -296 -194 -518 0
299 -297 -194 -518 0
299 -298 -194 -518 0
296 297 298 -299 -194 -518 0
299 -300 -194 -518 0
300 -299 -194 -518 0
305 -302 -194 -518 0
305 -303 -194 -518 0
305 -304 -194 -518 0
302 303 304 -305 -194 -518 0
305 -306 -194 -518 0
306 -305 -194 -518 0
311 -308 -194 -518 0
311 -309 -194 -518 0
311 -310 -194 -518 0
308 309 310 -311 -194 -518 0
311 -312 -194 -518 0
312 -311 -194 -518 0
317 -314 -194 -518 0
317 -315 -194 -518 0
317 -316 -194 -518 0
314 315 316 -317 -194 -518 0
317 -318 -194 -518 0
318 -317 -194 -518 0
323 -320 -194 -518 0
323 -321 -194 -518 0
323 -322 -194 -518 0
320 321 322 -323 -194 -518 0
323 -324 -194 -518 0
324 -323 -194 -518 0
277 -325 -194 -518 0
325 -277 -194 -518 0
283 -326 -194 -518 0
326 -283 -194 -518 0
289 -327 -194 -518 0
327 -289 -194 -518 0
295 -328 -194 -518 0
328 -295 -194 -518 0
301 -329 -194 -518 0
329 -301 -194 -518 0
307 -330 -194 -518 0
330 -307 -194 -518 0
313 -331 -194 -518 0
331 -313 -194 -518 0
319 -332 -194 -518 0
332 -319 -194 -518 0
277 -207 -194 -518 0
237 -207 -194 -518 0
207 -277 -237 -194 -518 0
283 -210 -194 -518 0
242 -210 -194 -518 0
210 -283 -242 -194 -518 0
289 -213 -194 -518 0
247 -213 -194 -518 0
213 -289 -247 -194 -518 0
295 -216 -194 -518 0
252 -216 -194 -518 0
216 -295 -252 -194 -518 0
301 -219 -194 -518 0
257 -219 -194 -518 0
219 -301 -257 -194 -518 0
307 -222 -194 -518 0
262 -222 -194 -518 0
222 -307 -262 -194 -518 0
313 -225 -194 -518 0
267 -225 -194 -518 0
225 -313 -267 -194 -518 0
319 -228 -194 -518 0
272 -228 -194 -518 0
228 -319 -272 -194 -518 0
277 -238 -194 -518 0
333 -238 -194 -518 0
238 -277 -333 -194 -518 0
277 -239 -194 -518 0
237 -239 -194 -518 0
334 -239 -194 -518 0
239 -277 -237 -334 -194 -518 0
283 -243 -194 -518 0
335 -243 -194 -518 0
198 -243 -194 -518 0
243 -283 -335 -198 -194 -518 0
283 -244 -194 -518 0
242 -244 -194 -518 0
336 -244 -194 -518 0
244 -283 -242 -336 -194 -518 0
289 -248 -194 -518 0
337 -248 -194 -518 0
199 -248 -194 -518 0
248 -289 -337 -199 -194 -518 0
289 -249 -194 -518 0
247 -249 -194 -518 0
338 -249 -194 -518 0
249 -289 -247 -338 -194 -518 0
295 -253 -194 -518 0
339 -253 -194 -518 0
200 -253 -194 -518 0
253 -295 -339 -200 -194 -518 0
295 -254 -194 -518 0
252 -254 -194 -518 0
340 -254 -194 -518 0
254 -295 -252 -340 -194 -518 0
301 -258 -194 -518 0
341 -258 -194 -518 0
201 -258 -194 -518 0
258 -301 -341 -201 -194 -518 0
301 -259 -194 -518 0
257 -259 -194 -518 0
342 -259 -194 -518 0
259 -301 -257 -342 -194 -518 0
307 -263 -194 -518 0
343 -263 -194 -518 0
202 -263 -194 -518 0
263 -307 -343 -202 -194 -518 0
307 -264 -194 -518 0
262 -264 -194 -518 0
344 -264 -194 -518 0
264 -307 -262 -344 -194 -518 0
313 -268 -194 -518 0
345 -268 -194 -518 0
203 -268 -194 -518 0
268 -313 -345 -203 -194 -518 0
313 -269 -194 -518 0
267 -269 -194 -518 0
346 -269 -194 -518 0
269 -313 -267 -346 -194 -518 0
319 -273 -194 -518 0
347 -273 -194 -518 0
204 -273 -194 -518 0
273 -319 -347 -204 -194 -518 0
319 -274 -194 -518 0
272 -274 -194 -518 0
348 -274 -194 -518 0
274 -319 -272 -348 -194 -518 0
349 -278 -194 -518 0
333 -278 -194 -518 0
229 -278 -194 -518 0
278 -349 -333 -229 -194 -518 0
277 -279 -194 -518 0
333 -279 -194 -518 0
279 -277 -333 -194 -518 0
277 -280 -194 -518 0
237 -280 -194 -518 0
334 -280 -194 -518 0
280 -277 -237 -334 -194 -518 0
350 -284 -194 -518 0
335 -284 -194 -518 0
230 -284 -194 -518 0
284 -350 -335 -230 -194 -518 0
283 -285 -194 -518 0
335 -285 -194 -518 0
285 -283 -335 -194 -518 0
283 -286 -194 -518 0
242 -286 -194 -518 0
336 -286 -194 -518 0
286 -283 -242 -336 -194 -518 0
351 -290 -194 -518 0
337 -290 -194 -518 0
231 -290 -194 -518 0
290 -351 -337 -231 -194 -518 0
289 -291 -194 -518 0
337 -291 -194 -518 0
291 -289 -337 -194 -518 0
289 -292 -194 -518 0
247 -292 -194 -518 0
338 -292 -194 -518 0
292 -289 -247 -338 -194 -518 0
352 -296 -194 -518 0
339 -296 -194 -518 0
232 -296 -194 -518 0
296 -352 -339 -232 -194 -518 0
295 -297 -194 -518 0
339 -297 -194 -518 0
297 -295 -339 -194 -518 0
295 -298 -194 -518 0
252 -298 -194 -518 0
340 -298 -194 -518 0
298 -295 -252 -340 -194 -518 0
353 -302 -194 -518 0
341 -302 -194 -518 0
233 -302 -194 -518 0
302 -353 -341 -233 -194 -518 0
301 -303 -194 -518 0
341 -303 -194 -518 0
303 -301 -341 -194 -518 0
301 -304 -194 -518 0
257 -304 -194 -518 0
342 -304 -194 -518 0
304 -301 -257 -342 -194 -518 0
354 -308 -194 -518 0
343 -308 -194 -518 0
234 -308 -194 -518 0
308 -354 -343 -234 -194 -518 0
307 -309 -194 -518 0
343 -309 -194 -518 0
309 -307 -343 -194 -518 0
307 -310 -194 -518 0
262 -310 -194 -518 0
344 -310 -194 -518 0
310 -307 -262 -344 -194 -518 0
355 -314 -194 -518 0
345 -314 -194 -518 0
235 -314 -194 -518 0
314 -355 -345 -235 -194 -518 0
313 -315 -194 -518 0
345 -315 -194 -518 0
315 -313 -345 -194 -518 0
313 -316 -194 -518 0
267 -316 -194 -518 0
346 -316 -194 -518 0
316 -313 -267 -346 -194 -518 0
356 -320 -194 -518 0
347 -320 -194 -518 0
236 -320 -194 -518 0
320 -356 -347 -236 -194 -518 0
319 -321 -194 -518 0
347 -321 -194 -518 0
321 -319 -347 -194 -518 0
319 -322 -194 -518 0
272 -322 -194 -518 0
348 -322 -194 -518 0
322 -319 -272 -348 -194 -518 0
229 334 -194 -518 0
-229 -334 -194 -518 0
230 336 -194 -518 0
-230 -336 -194 -518 0
231 338 -194 -518 0
-231 -338 -194 -518 0
232 340 -194 -518 0
-232 -340 -194 -518 0
233 342 -194 -518 0
-233 -342 -194 -518 0
234 344 -194 -518 0
-234 -344 -194 -518 0
235 346 -194 -518 0
-235 -346 -194 -518 0
236 348 -194 -518 0
-236 -348 -194 -518 0
237 333 -194 -518 0
-237 -333 -194 -518 0
242 335 -194 -518 0
-242 -335 -194 -518 0
247 337 -194 -518 0
-247 -337 -194 -518 0
252 339 -194 -518 0
-252 -339 -194 -518 0
257 341 -194 -518 0
-257 -341 -194 -518 0
262 343 -194 -518 0
-262 -343 -194 -518 0
267 345 -194 -518 0
-267 -345 -194 -518 0
272 347 -194 -518 0
-272 -347 -194 -518 0
277 349 -194 -518 0
-277 -349 -194 -518 0
283 350 -194 -518 0
-283 -350 -194 -518 0
289 351 -194 -518 0
-289 -351 -194 -518 0
295 352 -194 -518 0
-295 -352 -194 -518 0
301 353 -194 -518 0
-301 -353 -194 -518 0
307 354 -194 -518 0
-307 -354 -194 -518 0
313 355 -194 -518 0
-313 -355 -194 -518 0
319 356 -194 -518 0
-319 -356 -194 -518 0
206 -358 -194 -518 0
218 -358 -194 -518 0
358 -206 -218 -194 -518 0
206 -359 -194 -518 0
221 -359 -194 -518 0
359 -206 -221 -194 -518 0
206 -360 -194 -518 0
224 -360 -194 -518 0
360 -206 -224 -194 -518 0
206 -361 -194 -518 0
227 -361 -194 -518 0
361 -206 -227 -194 -518 0
209 -362 -194 -518 0
212 -362 -194 -518 0
362 -209 -212 -194 -518 0
209 -363 -194 -518 0
215 -363 -194 -518 0
363 -209 -215 -194 -518 0
206 -364 -194 -518 0
209 -364 -194 -518 0
364 -206 -209 -194 -518 0
209 -365 -194 -518 0
218 -365 -194 -518 0
365 -209 -218 -194 -518 0
209 -366 -194 -518 0
221 -366 -194 -518 0
366 -209 -221 -194 -518 0
209 -367 -194 -518 0
224 -367 -194 -518 0
367 -209 -224 -194 -518 0
209 -368 -194 -518 0
227 -368 -194 -518 0
368 -209 -227 -194 -518 0
212 -369 -194 -518 0
215 -369 -194 -518 0
369 -212 -215 -194 -518 0
212 -370 -194 -518 0
218 -370 -194 -518 0
370 -212 -218 -194 -518 0
212 -371 -194 -518 0
221 -371 -194 -518 0
371 -212 -221 -194 -518 0
212 -372 -194 -518 0
224 -372 -194 -518 0
372 -212 -224 -194 -518 0
212 -373 -194 -518 0
227 -373 -194 -518 0
373 -212 -227 -194 -518 0
215 -374 -194 -518 0
218 -374 -194 -518 0
374 -215 -218 -194 -518 0
206 -375 -194 -518 0
212 -375 -194 -518 0
375 -206 -212 -194 -518 0
215 -376 -194 -518 0
221 -376 -194 -518 0
376 -215 -221 -194 -518 0
215 -377 -194 -518 0
224 -377 -194 -518 0
377 -215 -224 -194 -518 0
215 -378 -194 -518 0
227 -378 -194 -518 0
378 -215 -227 -194 -518 0
218 -379 -194 -518 0
221 -379 -194 -518 0
379 -218 -221 -194 -518 0
218 -380 -194 -518 0
224 -380 -194 -518 0
380 -218 -224 -194 -518 0
218 -381 -194 -518 0
227 -381 -194 -518 0
381 -218 -227 -194 -518 0
221 -382 -194 -518 0
224 -382 -194 -518 0
382 -221 -224 -194 -518 0
221 -383 -194 -518 0
227 -383 -194 -518 0
383 -221 -227 -194 -518 0
224 -384 -194 -518 0
227 -384 -194 -518 0
384 -224 -227 -194 -518 0
206 -385 -194 -518 0
215 -385 -194 -518 0
385 -206 -215 -194 -518 0
386 387 -194 -518 0
-386 -387 -194 -518 0
386 -364 -194 -518 0
386 -375 -194 -518 0
386 -385 -194 -518 0
386 -358 -194 -518 0
386 -359 -194 -518 0
386 -360 -194 -518 0
386 -361 -194 -518 0
386 -362 -194 -518 0
386 -363 -194 -518 0
386 -365 -194 -518 0
386 -366 -194 -518 0
386 -367 -194 -518 0
386 -368 -194 -518 0
386 -369 -194 -518 0
386 -370 -194 -518 0
386 -371 -194 -518 0
386 -372 -194 -518 0
386 -373 -194 -518 0
386 -374 -194 -518 0
386 -376 -194 -518 0
386 -377 -194 -518 0
386 -378 -194 -518 0
386 -379 -194 -518 0
386 -380 -194 -518 0
386 -381 -194 -518 0
386 -382 -194 -518 0
386 -383 -194 -518 0
386 -384 -194 -518 0
364 375 385 358 359 360 361 362 363 365 366 367 368 369 370 371 372 373 374 376 377 378 379 380 381 382 383 384 -386 -194 -518 0
387 -194 -518 0
241 -435 -194 -518 0
435 -241 -194 -518 0
246 -440 -194 -518 0
440 -246 -194 -518 0
251 -445 -194 -518 0
445 -251 -194 -518 0
256 -450 -194 -518 0
450 -256 -194 -518 0
261 -455 -194 -518 0
455 -261 -194 -518 0
266 -460 -194 -518 0
460 -266 -194 -518 0
271 -465 -194 -518 0
465 -271 -194 -518 0
276 -470 -194 -518 0
470 -276 -194 -518 0
282 -475 -194 -518 0
475 -282 -194 -518 0
288 -481 -194 -518 0
481 -288 -194 -518 0
294 -487 -194 -518 0
487 -294 -194 -518 0
300 -493 -194 -518 0
493 -300 -194 -518 0
306 -499 -194 -518 0
499 -306 -194 -518 0
312 -505 -194 -518 0
505 -312 -194 -518 0
318 -511 -194 -518 0
511 -318 -194 -518 0
324 -517 -194 -518 0
517 -324 -194 -518 0
41 -435 -390 -194 -518 0
435 -41 -390 -194 -518 0
46 -440 -390 -194 -518 0
440 -46 -390 -194 -518 0
51 -445 -390 -194 -518 0
445 -51 -390 -194 -518 0
56 -450 -390 -194 -518 0
450 -56 -390 -194 -518 0
61 -455 -390 -194 -518 0
455 -61 -390 -194 -518 0
66 -460 -390 -194 -518 0
460 -66 -390 -194 -518 0
71 -465 -390 -194 -518 0
465 -71 -390 -194 -518 0
76 -470 -390 -194 -518 0
470 -76 -390 -194 -518 0
81 -475 -390 -194 -518 0
475 -81 -390 -194 -518 0
87 -481 -390 -194 -518 0
481 -87 -390 -194 -518 0
93 -487 -390 -194 -518 0
487 -93 -390 -194 -518 0
99 -493 -390 -194 -518 0
493 -99 -390 -194 -518 0
105 -499 -390 -194 -518 0
499 -105 -390 -194 -518 0
111 -505 -390 -194 -518 0
505 -111 -390 -194 -518 0
117 -511 -390 -194 -518 0
511 -117 -390 -194 -518 0
123 -517 -390 -194 -518 0
517 -123 -390 -194 -518 0
237 -435 -391 -194 -518 0
435 -237 -391 -194 -518 0
242 -440 -391 -194 -518 0
440 -242 -391 -194 -518 0
247 -445 -391 -194 -518 0
445 -247 -391 -194 -518 0
252 -450 -391 -194 -518 0
450 -252 -391 -194 -518 0
257 -455 -391 -194 -518 0
455 -257 -391 -194 -518 0
262 -460 -391 -194 -518 0
460 -262 -391 -194 -518 0
267 -465 -391 -194 -518 0
465 -267 -391 -194 -518 0
272 -470 -391 -194 -518 0
470 -272 -391 -194 -518 0
277 -475 -391 -194 -518 0
475 -277 -391 -194 -518 0
283 -481 -391 -194 -518 0
481 -283 -391 -194 -518 0
289 -487 -391 -194 -518 0
487 -289 -391 -194 -518 0
295 -493 -391 -194 -518 0
493 -295 -391 -194 -518 0
301 -499 -391 -194 -518 0
499 -301 -391 -194 -518 0
307 -505 -391 -194 -518 0
505 -307 -391 -194 -518 0
313 -511 -391 -194 -518 0
511 -313 -391 -194 -518 0
319 -517 -391 -194 -518 0
517 -319 -391 -194 -518 0
390 391 -194 -518 0
518 519 0
41 46 51 56 61 66 71 76 81 87 93 99 105 111 117 123 -519 0
